cost: 741.75
Route 1:           0   10   30   20   45    8   39   13   28   31   16   18   48   40   42   46   21    0
Route 2:           0   23   37   34   15   32   17   14    3   50   38   35   12   19    9    0
Route 3:           0   41    2   27    4    7   43    5   49   47   36   22   29    6   24   11    0
Route 4:           0    1   26   44   33   25    0
